60 
300 
-0.5 0 0 0
0.5 0 0 -15
-7 -7 35 -12
-7 -5 35 -10
-7 -3 35 -11
-7 -1 -35 -96
-7 1 35 -21
-7 3 35 -27
-7 5 -35 -71
-7 7 -35 -80
-5 -7 35 -20
-5 -5 25 -29
-5 -3 -25 -129
-5 -1 -25 -86
-5 1 -25 -137
-5 3 25 -26
-5 5 25 -11
-5 7 35 -13
-3 -7 35 -16
-3 -5 25 -25
-3 -3 15 -25
-3 -1 -15 -114
-3 1 -15 -67
-3 3 15 -13
-3 5 -25 -135
-3 7 -35 -122
-1 -7 35 -23
-1 -5 -25 -127
-1 -3 15 -22
-1 -1 5 -29
-1 1 -5 -135
-1 3 15 -14
-1 5 -25 -69
-1 7 35 -22
1 -7 35 -25
1 -5 25 -29
1 -3 -15 -110
1 -1 -5 -63
1 1 -5 -60
1 3 -15 -81
1 5 25 -23
1 7 -35 -69
3 -7 35 -11
3 -5 -25 -120
3 -3 -15 -124
3 -1 -15 -63
3 1 -15 -112
3 3 -15 -87
3 5 25 -29
3 7 35 -21
5 -7 -35 -63
5 -5 25 -14
5 -3 -25 -126
5 -1 -25 -86
5 1 25 -17
5 3 -25 -122
5 5 25 -26
5 7 -35 -80
7 -7 -35 -121
7 -5 35 -29
7 -3 35 -21
7 -1 35 -11
7 1 -35 -96
7 3 35 -28
7 5 -35 -91
7 7 -35 -120
